50
150 150
1 120 683
2 119 584
3 119 88
4 109 436
5 109 618
6 108 599
7 108 221
8 108 53
9 105 455
10 104 831
11 103 980
12 96 380
13 96 113
14 95 113
15 92 791
16 90 611
17 89 594
18 85 939
19 82 750
20 80 156
21 79 139
22 72 259
23 72 551
24 69 747
25 69 471
26 69 623
27 68 617
28 64 499
29 61 791
30 60 354
31 59 734
32 55 198
33 52 689
34 52 243
35 52 936
36 51 685
37 50 322
38 49 383
39 44 332
40 40 655
41 40 54
42 39 638
43 38 417
44 36 218
45 36 724
46 35 914
47 35 443
48 35 827
49 35 771
50 30 361
